NAME : zqloutput/eax-hard-simple-rescaleandround/50-28.tsp
TYPE : TSP
DIMENSION : 50
EDGE_WEIGHT_TYPE : EUC_2D
NODE_COORD_SECTION
1 858933 362714
2 195357 238814
3 327941 350738
4 840447 692914
5 380474 467721
6 756884 439840
7 889284 704161
8 163805 146117
9 473326 80677
10 900115 490382
11 398785 554108
12 47330 242215
13 390056 484496
14 935528 762644
15 487962 774053
16 447951 497045
17 721459 801088
18 577932 247191
19 537592 160743
20 780585 960598
21 122320 349187
22 254883 26219
23 178487 882061
24 806187 272487
25 155754 750253
26 164817 13656
27 255467 340852
28 485319 408743
29 55648 313156
30 842286 118189
31 288836 561492
32 576165 87860
33 240433 723570
34 523765 158711
35 766692 853866
36 640770 183558
37 402288 212156
38 886278 395690
39 837109 352950
40 183519 170115
41 536770 717494
42 700178 515349
43 928795 445333
44 939160 545383
45 520696 366841
46 420042 639006
47 931158 295671
48 185210 197680
49 188593 483885
50 632745 699363
EOF
